(set-logic ALL)
(declare-const numerator_VAR Int)
(declare-const denominator_VAR Int)
(declare-const limit_VAR Int)
(assert (< 1 (+ limit_VAR 1)))
(assert (not (= denominator_VAR 0)))
(assert (not (= denominator_VAR 0)))
(assert (< 2 (+ limit_VAR 1)))
(assert (not (= denominator_VAR 0)))
(assert (not (= denominator_VAR 0)))
(assert (< 3 (+ limit_VAR 1)))
(assert (not (= denominator_VAR 0)))
(assert (not (= denominator_VAR 0)))
(assert (< 4 (+ limit_VAR 1)))
(assert (not (= denominator_VAR 0)))
(assert (not (= denominator_VAR 0)))
(assert (< 5 (+ limit_VAR 1)))
(assert (not (= denominator_VAR 0)))
(assert (not (= denominator_VAR 0)))
(assert (< 6 (+ limit_VAR 1)))
(assert (not (= denominator_VAR 0)))
(assert (not (= denominator_VAR 0)))
(assert (< 7 (+ limit_VAR 1)))
(assert (not (= denominator_VAR 0)))
(assert (not (= denominator_VAR 0)))
(assert (< 8 (+ limit_VAR 1)))
(assert (not (= denominator_VAR 0)))
(assert (not (= denominator_VAR 0)))
(assert (< 9 (+ limit_VAR 1)))
(assert (not (= denominator_VAR 0)))
(assert (not (= denominator_VAR 0)))
(assert (< 10 (+ limit_VAR 1)))
(assert (not (= denominator_VAR 0)))
(assert (not (= denominator_VAR 0)))
(assert (< 11 (+ limit_VAR 1)))
(assert (not (= denominator_VAR 0)))
(assert (not (= denominator_VAR 0)))
(assert (< 12 (+ limit_VAR 1)))
(assert (not (= denominator_VAR 0)))
(assert (not (= denominator_VAR 0)))
(assert (< 13 (+ limit_VAR 1)))
(assert (not (= denominator_VAR 0)))
(assert (not (= denominator_VAR 0)))
(assert (< 14 (+ limit_VAR 1)))
(assert (not (= denominator_VAR 0)))
(assert (not (= denominator_VAR 0)))
(assert (< 15 (+ limit_VAR 1)))
(assert (not (= denominator_VAR 0)))
(assert (not (= denominator_VAR 0)))
(assert (< 16 (+ limit_VAR 1)))
(assert (not (= denominator_VAR 0)))
(assert (not (= denominator_VAR 0)))
(assert (< 17 (+ limit_VAR 1)))
(assert (not (= denominator_VAR 0)))
(assert (not (= denominator_VAR 0)))
(assert (< 18 (+ limit_VAR 1)))
(assert (not (= denominator_VAR 0)))
(assert (not (= denominator_VAR 0)))
(assert (< 19 (+ limit_VAR 1)))
(assert (not (= denominator_VAR 0)))
(assert (not (= denominator_VAR 0)))
(assert (< 20 (+ limit_VAR 1)))
(assert (not (= denominator_VAR 0)))
(assert (not (= denominator_VAR 0)))
(assert (< 21 (+ limit_VAR 1)))
(assert (not (= denominator_VAR 0)))
(assert (not (= denominator_VAR 0)))
(assert (< 22 (+ limit_VAR 1)))
(assert (not (= denominator_VAR 0)))
(assert (not (= denominator_VAR 0)))
(assert (< 23 (+ limit_VAR 1)))
(assert (not (= denominator_VAR 0)))
(assert (not (= denominator_VAR 0)))
(assert (< 24 (+ limit_VAR 1)))
(assert (not (= denominator_VAR 0)))
(assert (not (= denominator_VAR 0)))
(assert (< 25 (+ limit_VAR 1)))
(assert (not (= denominator_VAR 0)))
(assert (not (= denominator_VAR 0)))
(assert (< 26 (+ limit_VAR 1)))
(assert (not (= denominator_VAR 0)))
(assert (not (= denominator_VAR 0)))
(assert (< 27 (+ limit_VAR 1)))
(assert (not (= denominator_VAR 0)))
(assert (not (= denominator_VAR 0)))
(assert (< 28 (+ limit_VAR 1)))
(assert (not (= denominator_VAR 0)))
(assert (not (= denominator_VAR 0)))
(assert (< 29 (+ limit_VAR 1)))
(assert (not (= denominator_VAR 0)))
(assert (not (= denominator_VAR 0)))
(assert (< 30 (+ limit_VAR 1)))
(assert (not (= denominator_VAR 0)))
(assert (not (= denominator_VAR 0)))
(assert (< 31 (+ limit_VAR 1)))
(assert (not (= denominator_VAR 0)))
(assert (not (= denominator_VAR 0)))
(assert (< 32 (+ limit_VAR 1)))
(assert (not (= denominator_VAR 0)))
(assert (not (= denominator_VAR 0)))
(assert (< 33 (+ limit_VAR 1)))
(assert (not (= denominator_VAR 0)))
(assert (not (= denominator_VAR 0)))
(assert (< 34 (+ limit_VAR 1)))
(assert (not (= denominator_VAR 0)))
(assert (not (= denominator_VAR 0)))
(assert (< 35 (+ limit_VAR 1)))
(assert (not (= denominator_VAR 0)))
(assert (not (= denominator_VAR 0)))
(assert (< 36 (+ limit_VAR 1)))
(assert (not (= denominator_VAR 0)))
(assert (not (= denominator_VAR 0)))
(assert (< 37 (+ limit_VAR 1)))
(assert (not (= denominator_VAR 0)))
(assert (not (= denominator_VAR 0)))
(assert (< 38 (+ limit_VAR 1)))
(assert (not (= denominator_VAR 0)))
(assert (not (= denominator_VAR 0)))
(assert (< 39 (+ limit_VAR 1)))
(assert (not (= denominator_VAR 0)))
(assert (not (= denominator_VAR 0)))
(assert (< 40 (+ limit_VAR 1)))
(assert (not (= denominator_VAR 0)))
(assert (not (= denominator_VAR 0)))
(assert (< 41 (+ limit_VAR 1)))
(assert (not (= denominator_VAR 0)))
(assert (not (= denominator_VAR 0)))
(assert (< 42 (+ limit_VAR 1)))
(assert (not (= denominator_VAR 0)))
(assert (not (= denominator_VAR 0)))
(assert (< 43 (+ limit_VAR 1)))
(assert (not (= denominator_VAR 0)))
(assert (not (= denominator_VAR 0)))
(assert (< 44 (+ limit_VAR 1)))
(assert (not (= denominator_VAR 0)))
(assert (not (= denominator_VAR 0)))
(assert (< 45 (+ limit_VAR 1)))
(assert (not (= denominator_VAR 0)))
(assert (not (= denominator_VAR 0)))
(assert (< 46 (+ limit_VAR 1)))
(assert (not (= denominator_VAR 0)))
(assert (not (= denominator_VAR 0)))
(assert (< 47 (+ limit_VAR 1)))
(assert (not (= denominator_VAR 0)))
(assert (not (= denominator_VAR 0)))
(assert (< 48 (+ limit_VAR 1)))
(assert (not (= denominator_VAR 0)))
(assert (not (= denominator_VAR 0)))
(assert (< 49 (+ limit_VAR 1)))
(assert (not (= denominator_VAR 0)))
(assert (not (= denominator_VAR 0)))
(assert (< 50 (+ limit_VAR 1)))
(assert (not (= denominator_VAR 0)))
(assert (not (= denominator_VAR 0)))
(assert (< 51 (+ limit_VAR 1)))
(assert (not (= denominator_VAR 0)))
(assert (not (= denominator_VAR 0)))
(assert (< 52 (+ limit_VAR 1)))
(assert (not (= denominator_VAR 0)))
(assert (not (= denominator_VAR 0)))
(assert (< 53 (+ limit_VAR 1)))
(assert (not (= denominator_VAR 0)))
(assert (not (= denominator_VAR 0)))
(assert (< 54 (+ limit_VAR 1)))
(assert (not (= denominator_VAR 0)))
(assert (not (= denominator_VAR 0)))
(assert (< 55 (+ limit_VAR 1)))
(assert (not (= denominator_VAR 0)))
(assert (not (= denominator_VAR 0)))
(assert (< 56 (+ limit_VAR 1)))
(assert (not (= denominator_VAR 0)))
(assert (not (= denominator_VAR 0)))
(assert (< 57 (+ limit_VAR 1)))
(assert (not (= denominator_VAR 0)))
(assert (not (not (= denominator_VAR 0))))
(check-sat)
(get-value (numerator_VAR))
(get-value (denominator_VAR))
(get-value (limit_VAR))
